c Maximum weighted clique instances generated from exactcolors.
c cutoff: 1342177.
c A clique of value > scalef (1342177) defines an improving stable sets for coloring.
p edge 40 0
n 1 1342176
n 2 1342176
n 3 1342176
n 4 1342176
n 5 1342176
n 6 1342176
n 7 1342176
n 8 1342176
n 9 1342176
n 10 1342176
n 11 1342176
n 12 1342176
n 13 1342176
n 14 1342176
n 15 1342176
n 16 1342176
n 17 1342176
n 18 1342176
n 19 1342176
n 20 1342176
n 21 1342176
n 22 1342176
n 23 1342176
n 24 1342176
n 25 1342176
n 26 1342176
n 27 1342176
n 28 1342176
n 29 1342176
n 30 1342176
n 31 1342176
n 32 1342176
n 33 1342176
n 34 1342176
n 35 1342176
n 36 1342176
n 37 1342176
n 38 1342176
n 39 1342176
n 40 1342176
